10J3M/DAT/10J3MNLA-3.dat
10 3
24.0664 579.1916
17.5389 307.613
26.1421 683.4094
27.2394 741.9849
20.7669 431.2641
33.3437 1111.8023
18.5288 343.3164
31.4895 991.5886
26.2651 689.8555
28.6162 818.8869
2232.9709