10J3M/SOL/10J3MNLA-3.sol
solution status: optimal solution found
objective value:                     82.9736323390178
x#1#2                                               1 	(obj:0)
x#2#2                              0.0493397726377858 	(obj:0)
x#2#3                               0.950660227362214 	(obj:0)
x#3#1                                               1 	(obj:0)
x#4#1                                               1 	(obj:0)
x#5#3                                               1 	(obj:0)
x#6#2                                               1 	(obj:0)
x#7#2                                               1 	(obj:0)
x#8#1                               0.685539449280936 	(obj:0)
x#8#2                               0.194626336982937 	(obj:0)
x#8#3                               0.119834213736127 	(obj:0)
x#9#1                               0.583349561241183 	(obj:0)
x#9#3                               0.416650438758817 	(obj:0)
x#10#3                              0.999999911020305 	(obj:0)
z                                    82.9736323390178 	(obj:1)
